%%%mzn-stat: initTime=0.004218891
%%%mzn-stat: objective=416
%%%mzn-stat: nodes=1885
%%%mzn-stat: restarts=0
%%%mzn-stat: peakDepth=121
%%%mzn-stat: solveTime=0.061646641
%%%mzn-stat: variables=386
%%%mzn-stat: propagators=263
%%%mzn-stat: failures=599
%%%mzn-stat: propagations=83536
%%%mzn-stat: nogoods=599
%%%mzn-stat: AverageConflictSize=7.624373956594324
%%%mzn-stat: NumUnitNogoodsLearned=415
%%%mzn-stat: AverageLearnedNogoodLength=4.784641068447413
%%%mzn-stat: AverageBacktrackAmount=0
%%%mzn-stat: AverageLbd=3.293823038397329
%%%mzn-stat-end
maxleg = 416;
succ = array1d(1..20,[11, 12, 6, 16, 15, 13, 17, 7, 19, 4, 18, 1, 14, 8, 20, 9, 2, 5, 3, 10]);
% time elapsed: 1.50 s
----------
==========
% time elapsed: 1.50 s
%%%mzn-stat: initTime=0.004218891
%%%mzn-stat: objective=416
%%%mzn-stat: nodes=1885
%%%mzn-stat: restarts=0
%%%mzn-stat: peakDepth=121
%%%mzn-stat: solveTime=0.061649869
%%%mzn-stat: variables=386
%%%mzn-stat: propagators=263
%%%mzn-stat: failures=599
%%%mzn-stat: propagations=83536
%%%mzn-stat: nogoods=599
%%%mzn-stat: AverageConflictSize=7.624373956594324
%%%mzn-stat: NumUnitNogoodsLearned=415
%%%mzn-stat: AverageLearnedNogoodLength=4.784641068447413
%%%mzn-stat: AverageBacktrackAmount=0
%%%mzn-stat: AverageLbd=3.293823038397329
%%%mzn-stat-end
